instances/knapsack/discrete/knapsack_60_14.kp
73368
60
296

71 7.1 81
87 8.7 34
57 5.7 27
42 4.2 59
63 6.3 93
37 3.7 36
32 3.2 85
31 3.1 11
100 10.0 90
97 9.7 94
99 9.9 58
98 9.8 46
83 8.3 2
95 9.5 73
24 2.4 62
88 8.8 91
8 0.8 65
47 4.7 53
52 5.2 46
37 3.7 73
100 10.0 85
11 1.1 98
71 7.1 87
58 5.8 55
4 0.4 68
59 5.9 26
89 8.9 67
95 9.5 19
25 2.5 69
46 4.6 4
97 9.7 32
35 3.5 3
31 3.1 47
12 1.2 18
91 9.1 7
40 4.0 4
15 1.5 76
28 2.8 62
23 2.3 78
46 4.6 87
98 9.8 91
69 6.9 93
21 2.1 57
93 9.3 90
22 2.2 98
6 0.6 82
9 0.9 68
89 8.9 44
26 2.6 84
7 0.7 89
78 7.8 2
3 0.3 46
4 0.4 98
51 5.1 52
28 2.8 99
63 6.3 77
84 8.4 58
46 4.6 83
35 3.5 7
61 6.1 78

1506
267

[3.1 0.83 4.38 1.32 4.43 2.63 3.13 4.24 3.0 2.86 3.89 2.47 3.17 2.04 3.78 2.43 3.68 4.12 0.61 2.47 2.82 4.14 2.42 1.06 0.42 4.21 1.54 2.64 0.33 3.07 3.54 0.09 0.21 1.66 2.61 3.22 2.76 0.45 3.18 3.82 3.28 2.66 3.18 4.34 2.65 3.25 1.35 3.5 3.94 3.27 1.26 3.28 4.41 2.63 4.29 2.92 2.55 2.03 4.31 4.11]

[24 68 30 87 48 94 37 28 89 54 28 39 88 64 29 57 9 72 37 18 37 4 72 47 41 8 54 84 30 35 30 100 52 97 32 5 52 73 4 35 43 94 66 30 27 15 18 18 71 36 75 4 29 100 57 84 73 63 12 6]
