instances/knapsack/discrete_knapsack_uncertainty/knapsack_60_14.lp
\ Model knapsack_60_14
\ LP format - for model browsing. Use MPS format to capture full model detail.
\ Signature: 0x44a844bc7146bef8
Minimize
  - 89 x[0] - 9 x[1] - 55 x[2] - 27 x[3] - 44 x[4] - 36 x[5] - 56 x[6]
   - 2 x[7] - 73 x[8] - 45 x[9] - 30 x[10] - 46 x[11] - 14 x[12] - 9 x[13]
   - 26 x[14] - 99 x[15] - 89 x[16] - 53 x[17] - x[18] - 84 x[19]
   - 36 x[20] - 70 x[21] - 43 x[22] - 87 x[23] - 48 x[24] - 29 x[25]
   - 55 x[26] - 14 x[27] - 53 x[28] - 3 x[29] - 12 x[30] - 43 x[31]
   - 51 x[32] - 74 x[33] - 34 x[34] - 76 x[35] - 68 x[36] - 62 x[37]
   - 5 x[38] - 50 x[39] - 75 x[40] - 72 x[41] - 80 x[42] - 6 x[43]
   - 77 x[44] - 66 x[45] - 43 x[46] - 43 x[47] - 19 x[48] - 44 x[49]
   - 86 x[50] - 53 x[51] - 86 x[52] - 40 x[53] - 43 x[54] - 45 x[55]
   - 33 x[56] - 99 x[57] - 35 x[58] - 98 x[59]
Subject To
 primal_upper: 76 x[0] + 53 x[1] + 23 x[2] + 40 x[3] + 85 x[4] + 78 x[5]
   + 46 x[6] + 92 x[7] + 30 x[8] + 59 x[9] + 48 x[10] + 12 x[11] + 25 x[12]
   + 89 x[13] + 57 x[14] + 81 x[15] + 46 x[16] + 61 x[17] + 30 x[18]
   + 83 x[19] + 74 x[20] + 84 x[21] + 49 x[22] + 11 x[23] + 29 x[24]
   + 85 x[25] + 55 x[26] + 32 x[27] + 22 x[28] + 36 x[29] + 6 x[30]
   + 92 x[31] + 96 x[32] + 26 x[33] + 33 x[34] + 2 x[35] + 25 x[36]
   + 5 x[37] + 29 x[38] + 83 x[39] + 68 x[40] + 30 x[41] + 51 x[42]
   + 10 x[43] + 20 x[44] + 19 x[45] + 82 x[46] + 42 x[47] + 16 x[48]
   + 65 x[49] + 55 x[50] + 85 x[51] + 26 x[52] + 5 x[53] + 25 x[54]
   + 68 x[55] + 74 x[56] + 55 x[57] + 9 x[58] + 11 x[59] + 7.6 r[0]
   + 5.3 r[1] + 2.3 r[2] + 4 r[3] + 8.5 r[4] + 7.8 r[5] + 4.6 r[6]
   + 9.2 r[7] + 3 r[8] + 5.9 r[9] + 4.8 r[10] + 1.2 r[11] + 2.5 r[12]
   + 8.9 r[13] + 5.7 r[14] + 8.1 r[15] + 4.6 r[16] + 6.1 r[17] + 3 r[18]
   + 8.3 r[19] + 7.4 r[20] + 8.4 r[21] + 4.9 r[22] + 1.1 r[23] + 2.9 r[24]
   + 8.5 r[25] + 5.5 r[26] + 3.2 r[27] + 2.2 r[28] + 3.6 r[29] + 0.6 r[30]
   + 9.2 r[31] + 9.6 r[32] + 2.6 r[33] + 3.3 r[34] + 0.2 r[35] + 2.5 r[36]
   + 0.5 r[37] + 2.9 r[38] + 8.3 r[39] + 6.8 r[40] + 3 r[41] + 5.1 r[42]
   + r[43] + 2 r[44] + 1.9 r[45] + 8.2 r[46] + 4.2 r[47] + 1.6 r[48]
   + 6.5 r[49] + 5.5 r[50] + 8.5 r[51] + 2.6 r[52] + 0.5 r[53] + 2.5 r[54]
   + 6.8 r[55] + 7.4 r[56] + 5.5 r[57] + 0.9 r[58] + 1.1 r[59] <= 267
 primal_lower: 4.510747549623717 x[0] + 2.318974769553341 x[1]
   + 2.077617032411134 x[2] + 3.9881640536346 x[3] + 2.419868073145902 x[4]
   + 2.111776858007616 x[5] + 1.072845748961047 x[6]
   + 3.82510677519937 x[7] + 1.663439625508528 x[8] + 1.61962058525301 x[9]
   + 0.5857941407642578 x[10] + 3.159666095063581 x[11]
   + 3.813693365670528 x[12] + 3.590118543024384 x[13]
   + 2.705003114347619 x[14] + 1.322703613712632 x[15]
   + 0.7319911976171455 x[16] + 3.948362251335888 x[17]
   + 2.701452584064268 x[18] + 2.032930911099375 x[19]
   + 1.947529031295628 x[20] + 3.956990203244314 x[21]
   + 1.143560796559173 x[22] + 2.624979029829594 x[23]
   + 0.4183647293824681 x[24] + 4.771692546932679 x[25]
   + 0.4870111883424398 x[26] + 2.646584311261252 x[27]
   + 1.551929837931897 x[28] + 0.7137278977785346 x[29]
   + 2.229467652137863 x[30] + 0.7508950965563363 x[31]
   + 1.660519379478648 x[32] + 2.402917078048847 x[33]
   + 1.054891684109276 x[34] + 1.103099943454045 x[35]
   + 4.122529305129075 x[36] + 3.463001693815303 x[37]
   + 3.837294440463844 x[38] + 0.3711661695383929 x[39]
   + 4.77705206333721 x[40] + 2.282371848545987 x[41]
   + 3.058394797956453 x[42] + 3.421279377511861 x[43]
   + 4.06741054055703 x[44] + 1.450036019102849 x[45]
   + 3.294999033063579 x[46] + 1.050143422878723 x[47]
   + 4.102293468158404 x[48] + 2.200575879707884 x[49]
   + 0.3648419230061354 x[50] + 0.0110938431029954 x[51]
   + 1.454563141637007 x[52] + 3.628943459153638 x[53]
   + 3.29165146955873 x[54] + 2.126737376517899 x[55]
   + 3.996280750581764 x[56] + 3.094032459454292 x[57]
   + 3.537644649512787 x[58] + 1.046339933737279 x[59] + 63 u[0] + 71 u[1]
   + 77 u[2] + 78 u[3] + 3 u[4] + 61 u[5] + 64 u[6] + 59 u[7] + 16 u[8]
   + 77 u[9] + 67 u[10] + 38 u[11] + 19 u[12] + 95 u[13] + 68 u[14]
   + 4 u[15] + 60 u[16] + 63 u[17] + 64 u[18] + 57 u[19] + 60 u[20]
   + 35 u[21] + 79 u[22] + 26 u[23] + 48 u[24] + 31 u[25] + 49 u[26]
   + 51 u[27] + 73 u[28] + 94 u[29] + 81 u[30] + 55 u[31] + 43 u[32]
   + 48 u[33] + 47 u[34] + 36 u[35] + 51 u[36] + 12 u[37] + 47 u[38]
   + 46 u[39] + 46 u[40] + 81 u[41] + 65 u[42] + 13 u[43] + 26 u[44]
   + 58 u[45] + 37 u[46] + 65 u[47] + 54 u[48] + 63 u[49] + 54 u[50]
   + 95 u[51] + 28 u[52] + 27 u[53] + 40 u[54] + 59 u[55] + 56 u[56]
   + 70 u[57] + 35 u[58] + 37 u[59] <= 86600
 mccormick1[0]: - u[0] + r[0] <= 0
 mccormick1[1]: - u[1] + r[1] <= 0
 mccormick1[2]: - u[2] + r[2] <= 0
 mccormick1[3]: - u[3] + r[3] <= 0
 mccormick1[4]: - u[4] + r[4] <= 0
 mccormick1[5]: - u[5] + r[5] <= 0
 mccormick1[6]: - u[6] + r[6] <= 0
 mccormick1[7]: - u[7] + r[7] <= 0
 mccormick1[8]: - u[8] + r[8] <= 0
 mccormick1[9]: - u[9] + r[9] <= 0
 mccormick1[10]: - u[10] + r[10] <= 0
 mccormick1[11]: - u[11] + r[11] <= 0
 mccormick1[12]: - u[12] + r[12] <= 0
 mccormick1[13]: - u[13] + r[13] <= 0
 mccormick1[14]: - u[14] + r[14] <= 0
 mccormick1[15]: - u[15] + r[15] <= 0
 mccormick1[16]: - u[16] + r[16] <= 0
 mccormick1[17]: - u[17] + r[17] <= 0
 mccormick1[18]: - u[18] + r[18] <= 0
 mccormick1[19]: - u[19] + r[19] <= 0
 mccormick1[20]: - u[20] + r[20] <= 0
 mccormick1[21]: - u[21] + r[21] <= 0
 mccormick1[22]: - u[22] + r[22] <= 0
 mccormick1[23]: - u[23] + r[23] <= 0
 mccormick1[24]: - u[24] + r[24] <= 0
 mccormick1[25]: - u[25] + r[25] <= 0
 mccormick1[26]: - u[26] + r[26] <= 0
 mccormick1[27]: - u[27] + r[27] <= 0
 mccormick1[28]: - u[28] + r[28] <= 0
 mccormick1[29]: - u[29] + r[29] <= 0
 mccormick1[30]: - u[30] + r[30] <= 0
 mccormick1[31]: - u[31] + r[31] <= 0
 mccormick1[32]: - u[32] + r[32] <= 0
 mccormick1[33]: - u[33] + r[33] <= 0
 mccormick1[34]: - u[34] + r[34] <= 0
 mccormick1[35]: - u[35] + r[35] <= 0
 mccormick1[36]: - u[36] + r[36] <= 0
 mccormick1[37]: - u[37] + r[37] <= 0
 mccormick1[38]: - u[38] + r[38] <= 0
 mccormick1[39]: - u[39] + r[39] <= 0
 mccormick1[40]: - u[40] + r[40] <= 0
 mccormick1[41]: - u[41] + r[41] <= 0
 mccormick1[42]: - u[42] + r[42] <= 0
 mccormick1[43]: - u[43] + r[43] <= 0
 mccormick1[44]: - u[44] + r[44] <= 0
 mccormick1[45]: - u[45] + r[45] <= 0
 mccormick1[46]: - u[46] + r[46] <= 0
 mccormick1[47]: - u[47] + r[47] <= 0
 mccormick1[48]: - u[48] + r[48] <= 0
 mccormick1[49]: - u[49] + r[49] <= 0
 mccormick1[50]: - u[50] + r[50] <= 0
 mccormick1[51]: - u[51] + r[51] <= 0
 mccormick1[52]: - u[52] + r[52] <= 0
 mccormick1[53]: - u[53] + r[53] <= 0
 mccormick1[54]: - u[54] + r[54] <= 0
 mccormick1[55]: - u[55] + r[55] <= 0
 mccormick1[56]: - u[56] + r[56] <= 0
 mccormick1[57]: - u[57] + r[57] <= 0
 mccormick1[58]: - u[58] + r[58] <= 0
 mccormick1[59]: - u[59] + r[59] <= 0
 mccormick2[0]: - x[0] + r[0] <= 0
 mccormick2[1]: - x[1] + r[1] <= 0
 mccormick2[2]: - x[2] + r[2] <= 0
 mccormick2[3]: - x[3] + r[3] <= 0
 mccormick2[4]: - x[4] + r[4] <= 0
 mccormick2[5]: - x[5] + r[5] <= 0
 mccormick2[6]: - x[6] + r[6] <= 0
 mccormick2[7]: - x[7] + r[7] <= 0
 mccormick2[8]: - x[8] + r[8] <= 0
 mccormick2[9]: - x[9] + r[9] <= 0
 mccormick2[10]: - x[10] + r[10] <= 0
 mccormick2[11]: - x[11] + r[11] <= 0
 mccormick2[12]: - x[12] + r[12] <= 0
 mccormick2[13]: - x[13] + r[13] <= 0
 mccormick2[14]: - x[14] + r[14] <= 0
 mccormick2[15]: - x[15] + r[15] <= 0
 mccormick2[16]: - x[16] + r[16] <= 0
 mccormick2[17]: - x[17] + r[17] <= 0
 mccormick2[18]: - x[18] + r[18] <= 0
 mccormick2[19]: - x[19] + r[19] <= 0
 mccormick2[20]: - x[20] + r[20] <= 0
 mccormick2[21]: - x[21] + r[21] <= 0
 mccormick2[22]: - x[22] + r[22] <= 0
 mccormick2[23]: - x[23] + r[23] <= 0
 mccormick2[24]: - x[24] + r[24] <= 0
 mccormick2[25]: - x[25] + r[25] <= 0
 mccormick2[26]: - x[26] + r[26] <= 0
 mccormick2[27]: - x[27] + r[27] <= 0
 mccormick2[28]: - x[28] + r[28] <= 0
 mccormick2[29]: - x[29] + r[29] <= 0
 mccormick2[30]: - x[30] + r[30] <= 0
 mccormick2[31]: - x[31] + r[31] <= 0
 mccormick2[32]: - x[32] + r[32] <= 0
 mccormick2[33]: - x[33] + r[33] <= 0
 mccormick2[34]: - x[34] + r[34] <= 0
 mccormick2[35]: - x[35] + r[35] <= 0
 mccormick2[36]: - x[36] + r[36] <= 0
 mccormick2[37]: - x[37] + r[37] <= 0
 mccormick2[38]: - x[38] + r[38] <= 0
 mccormick2[39]: - x[39] + r[39] <= 0
 mccormick2[40]: - x[40] + r[40] <= 0
 mccormick2[41]: - x[41] + r[41] <= 0
 mccormick2[42]: - x[42] + r[42] <= 0
 mccormick2[43]: - x[43] + r[43] <= 0
 mccormick2[44]: - x[44] + r[44] <= 0
 mccormick2[45]: - x[45] + r[45] <= 0
 mccormick2[46]: - x[46] + r[46] <= 0
 mccormick2[47]: - x[47] + r[47] <= 0
 mccormick2[48]: - x[48] + r[48] <= 0
 mccormick2[49]: - x[49] + r[49] <= 0
 mccormick2[50]: - x[50] + r[50] <= 0
 mccormick2[51]: - x[51] + r[51] <= 0
 mccormick2[52]: - x[52] + r[52] <= 0
 mccormick2[53]: - x[53] + r[53] <= 0
 mccormick2[54]: - x[54] + r[54] <= 0
 mccormick2[55]: - x[55] + r[55] <= 0
 mccormick2[56]: - x[56] + r[56] <= 0
 mccormick2[57]: - x[57] + r[57] <= 0
 mccormick2[58]: - x[58] + r[58] <= 0
 mccormick2[59]: - x[59] + r[59] <= 0
 mccormick3[0]: x[0] + u[0] - r[0] <= 1
 mccormick3[1]: x[1] + u[1] - r[1] <= 1
 mccormick3[2]: x[2] + u[2] - r[2] <= 1
 mccormick3[3]: x[3] + u[3] - r[3] <= 1
 mccormick3[4]: x[4] + u[4] - r[4] <= 1
 mccormick3[5]: x[5] + u[5] - r[5] <= 1
 mccormick3[6]: x[6] + u[6] - r[6] <= 1
 mccormick3[7]: x[7] + u[7] - r[7] <= 1
 mccormick3[8]: x[8] + u[8] - r[8] <= 1
 mccormick3[9]: x[9] + u[9] - r[9] <= 1
 mccormick3[10]: x[10] + u[10] - r[10] <= 1
 mccormick3[11]: x[11] + u[11] - r[11] <= 1
 mccormick3[12]: x[12] + u[12] - r[12] <= 1
 mccormick3[13]: x[13] + u[13] - r[13] <= 1
 mccormick3[14]: x[14] + u[14] - r[14] <= 1
 mccormick3[15]: x[15] + u[15] - r[15] <= 1
 mccormick3[16]: x[16] + u[16] - r[16] <= 1
 mccormick3[17]: x[17] + u[17] - r[17] <= 1
 mccormick3[18]: x[18] + u[18] - r[18] <= 1
 mccormick3[19]: x[19] + u[19] - r[19] <= 1
 mccormick3[20]: x[20] + u[20] - r[20] <= 1
 mccormick3[21]: x[21] + u[21] - r[21] <= 1
 mccormick3[22]: x[22] + u[22] - r[22] <= 1
 mccormick3[23]: x[23] + u[23] - r[23] <= 1
 mccormick3[24]: x[24] + u[24] - r[24] <= 1
 mccormick3[25]: x[25] + u[25] - r[25] <= 1
 mccormick3[26]: x[26] + u[26] - r[26] <= 1
 mccormick3[27]: x[27] + u[27] - r[27] <= 1
 mccormick3[28]: x[28] + u[28] - r[28] <= 1
 mccormick3[29]: x[29] + u[29] - r[29] <= 1
 mccormick3[30]: x[30] + u[30] - r[30] <= 1
 mccormick3[31]: x[31] + u[31] - r[31] <= 1
 mccormick3[32]: x[32] + u[32] - r[32] <= 1
 mccormick3[33]: x[33] + u[33] - r[33] <= 1
 mccormick3[34]: x[34] + u[34] - r[34] <= 1
 mccormick3[35]: x[35] + u[35] - r[35] <= 1
 mccormick3[36]: x[36] + u[36] - r[36] <= 1
 mccormick3[37]: x[37] + u[37] - r[37] <= 1
 mccormick3[38]: x[38] + u[38] - r[38] <= 1
 mccormick3[39]: x[39] + u[39] - r[39] <= 1
 mccormick3[40]: x[40] + u[40] - r[40] <= 1
 mccormick3[41]: x[41] + u[41] - r[41] <= 1
 mccormick3[42]: x[42] + u[42] - r[42] <= 1
 mccormick3[43]: x[43] + u[43] - r[43] <= 1
 mccormick3[44]: x[44] + u[44] - r[44] <= 1
 mccormick3[45]: x[45] + u[45] - r[45] <= 1
 mccormick3[46]: x[46] + u[46] - r[46] <= 1
 mccormick3[47]: x[47] + u[47] - r[47] <= 1
 mccormick3[48]: x[48] + u[48] - r[48] <= 1
 mccormick3[49]: x[49] + u[49] - r[49] <= 1
 mccormick3[50]: x[50] + u[50] - r[50] <= 1
 mccormick3[51]: x[51] + u[51] - r[51] <= 1
 mccormick3[52]: x[52] + u[52] - r[52] <= 1
 mccormick3[53]: x[53] + u[53] - r[53] <= 1
 mccormick3[54]: x[54] + u[54] - r[54] <= 1
 mccormick3[55]: x[55] + u[55] - r[55] <= 1
 mccormick3[56]: x[56] + u[56] - r[56] <= 1
 mccormick3[57]: x[57] + u[57] - r[57] <= 1
 mccormick3[58]: x[58] + u[58] - r[58] <= 1
 mccormick3[59]: x[59] + u[59] - r[59] <= 1
Bounds
Binaries
 x[0] x[1] x[2] x[3] x[4] x[5] x[6] x[7] x[8] x[9] x[10] x[11] x[12] x[13]
 x[14] x[15] x[16] x[17] x[18] x[19] x[20] x[21] x[22] x[23] x[24] x[25]
 x[26] x[27] x[28] x[29] x[30] x[31] x[32] x[33] x[34] x[35] x[36] x[37]
 x[38] x[39] x[40] x[41] x[42] x[43] x[44] x[45] x[46] x[47] x[48] x[49]
 x[50] x[51] x[52] x[53] x[54] x[55] x[56] x[57] x[58] x[59] u[0] u[1] u[2]
 u[3] u[4] u[5] u[6] u[7] u[8] u[9] u[10] u[11] u[12] u[13] u[14] u[15]
 u[16] u[17] u[18] u[19] u[20] u[21] u[22] u[23] u[24] u[25] u[26] u[27]
 u[28] u[29] u[30] u[31] u[32] u[33] u[34] u[35] u[36] u[37] u[38] u[39]
 u[40] u[41] u[42] u[43] u[44] u[45] u[46] u[47] u[48] u[49] u[50] u[51]
 u[52] u[53] u[54] u[55] u[56] u[57] u[58] u[59] r[0] r[1] r[2] r[3] r[4]
 r[5] r[6] r[7] r[8] r[9] r[10] r[11] r[12] r[13] r[14] r[15] r[16] r[17]
 r[18] r[19] r[20] r[21] r[22] r[23] r[24] r[25] r[26] r[27] r[28] r[29]
 r[30] r[31] r[32] r[33] r[34] r[35] r[36] r[37] r[38] r[39] r[40] r[41]
 r[42] r[43] r[44] r[45] r[46] r[47] r[48] r[49] r[50] r[51] r[52] r[53]
 r[54] r[55] r[56] r[57] r[58] r[59]
End
